<instance format="XCSP3" type="CSP">
  <constraints>
    <extension id="c1">
      <list> x1 x2 x3 </list>
      <supports> (0,1,0)(1,0,0)(1,1,0)(1,1,1) </supports>
    </extension>
    <extension id="c2">
      <list> y1 y2 y3 y4 </list>
      <conflicts> (1,2,3,4)(3,1,3,4) </conflicts>
    </extension>
  </constraints>
</instance>
